DATASET = "thpack2";
INSTANCE = "049";

WIDTH = 233;
HEIGHT = 220;
LENGTH = 587;

NO_OF_SHAPES = 5;
size = [|
  91,54,45 |
  105,77,72 |
  79,78,48 |
  109,76,59 |
  48,37,30 |
|];

verticality = [|
  0,1,1 |
  1,1,1 |
  1,1,1 |
  1,1,1 |
  1,1,1 |
|];

box_count = [
  18,
  18,
  18,
  18,
  22,
];
